p cnf 15 60
1 4 7 10 13 0
2 5 8 11 14 0
3 6 9 12 15 0
-1 -2 0
-1 -3 0
-2 -3 0
-4 -5 0
-4 -6 0
-5 -6 0
-7 -8 0
-7 -9 0
-8 -9 0
-10 -11 0
-10 -12 0
-11 -12 0
-13 -14 0
-13 -15 0
-14 -15 0
-1 -5 0
-1 -6 0
-2 -4 0
-2 -6 0
-3 -4 0
-3 -5 0
-1 -11 0
-1 -12 0
-2 -10 0
-2 -12 0
-3 -10 0
-3 -11 0
-1 -14 0
-1 -15 0
-2 -13 0
-2 -15 0
-3 -13 0
-3 -14 0
-4 -8 0
-4 -9 0
-5 -7 0
-5 -9 0
-6 -7 0
-6 -8 0
-4 -11 0
-4 -12 0
-5 -10 0
-5 -12 0
-6 -10 0
-6 -11 0
-4 -14 0
-4 -15 0
-5 -13 0
-5 -15 0
-6 -13 0
-6 -14 0
-10 -14 0
-10 -15 0
-11 -13 0
-11 -15 0
-12 -13 0
-12 -14 0
